p ocr 492 475 1469
1 493
1 494
1 495
1 496
1 497
1 498
1 499
1 500
1 502
1 503
1 504
1 505
1 506
1 508
1 512
1 515
1 516
1 521
1 522
1 524
1 526
1 529
1 530
1 531
1 532
1 534
1 538
2 493
2 494
2 495
2 498
2 500
2 505
2 509
2 511
2 512
2 514
2 522
2 525
2 533
2 536
3 494
3 500
3 526
4 494
4 502
4 519
4 523
4 536
5 498
5 538
6 494
6 501
6 507
6 517
6 518
6 519
6 520
6 523
7 495
7 498
8 494
8 523
9 494
9 501
9 507
9 517
9 520
9 528
10 493
10 505
10 512
10 531
10 533
11 495
11 503
11 506
11 508
11 510
11 516
12 496
12 497
12 515
13 494
13 507
13 539
13 540
13 541
13 542
13 543
13 544
13 545
13 546
13 548
14 539
14 540
14 541
14 543
14 545
14 547
15 540
15 541
15 542
16 541
17 539
18 539
18 543
19 540
19 541
20 540
20 546
21 541
21 545
22 546
22 548
23 540
24 539
24 544
25 541
25 542
26 540
26 541
27 540
28 541
28 542
30 541
30 542
31 540
32 540
32 546
32 548
33 540
33 541
34 540
35 541
35 545
37 541
38 541
39 540
39 546
39 548
40 541
43 543
44 541
45 540
46 541
46 545
48 539
48 543
50 540
50 541
51 539
51 543
51 544
52 541
52 545
52 548
52 549
52 572
52 585
53 548
53 549
53 550
53 552
53 553
53 554
53 555
53 556
53 559
53 560
53 561
53 564
53 565
53 567
53 568
53 569
53 571
53 572
53 575
53 576
53 577
53 578
53 579
53 580
53 581
53 584
53 585
53 587
53 588
53 591
53 593
54 548
54 549
54 550
54 551
54 552
54 555
54 556
54 557
54 562
54 566
54 567
54 568
54 570
54 571
54 578
54 583
54 587
54 590
55 549
55 550
55 551
55 566
55 583
56 548
56 549
57 549
57 555
57 579
57 581
58 552
58 557
58 563
58 582
59 552
60 549
60 553
60 580
60 586
60 591
61 552
61 582
62 549
62 583
63 548
63 549
64 549
64 580
64 586
65 550
65 559
65 577
67 556
67 561
67 593
68 555
68 576
68 579
69 548
70 548
71 561
71 564
72 552
72 553
72 569
72 573
72 574
72 588
72 589
72 592
73 553
73 560
73 565
73 574
73 589
74 550
74 593
74 594
74 596
74 597
74 598
74 600
74 601
74 612
74 614
74 615
75 593
75 594
75 595
75 597
75 601
75 611
75 617
76 593
76 596
76 597
76 600
76 608
76 612
76 617
77 593
77 596
77 598
77 599
77 607
78 596
78 609
78 613
79 593
79 596
80 597
80 604
80 610
80 615
81 596
82 597
82 604
82 610
83 597
83 601
83 603
83 616
84 593
84 594
84 595
84 605
85 593
85 598
85 599
85 606
86 597
87 597
87 604
88 596
89 596
90 596
90 609
90 613
91 593
91 594
92 597
92 601
95 593
95 596
97 597
97 601
97 614
98 604
98 610
99 604
99 610
100 596
100 609
101 597
101 603
101 616
102 593
102 599
103 593
103 596
103 608
104 593
105 593
105 596
106 597
108 597
108 601
108 611
109 599
109 606
110 596
112 597
114 599
114 606
114 617
114 618
114 619
114 620
114 621
114 622
114 624
114 628
114 630
114 632
114 634
114 637
114 639
114 640
114 641
114 642
114 643
114 645
114 647
114 649
114 650
114 656
114 657
114 658
114 659
114 661
115 617
115 618
115 619
115 620
115 621
115 622
115 623
115 624
115 625
115 626
115 628
115 629
115 632
115 634
115 640
115 644
115 653
116 617
116 618
116 623
116 625
116 631
116 644
117 618
117 623
117 626
117 631
117 648
118 621
118 622
119 617
119 618
119 627
119 655
120 617
120 630
120 643
120 647
120 661
121 617
121 625
121 652
122 617
122 625
122 633
122 638
122 652
123 617
123 618
123 635
123 637
123 639
124 625
125 625
126 630
126 643
127 621
127 624
127 636
128 623
128 653
129 619
130 624
130 634
131 619
131 620
131 629
131 654
132 618
132 648
133 624
133 634
133 641
133 642
134 617
134 625
135 621
135 628
136 628
137 623
137 653
138 620
138 650
139 625
139 633
140 632
141 634
141 640
141 657
142 621
143 625
144 625
144 633
145 623
146 633
149 634
149 641
150 618
150 621
151 637
153 623
154 625
154 633
154 661
154 665
154 667
154 673
154 686
154 689
155 661
155 662
155 663
155 664
155 665
155 667
155 669
155 670
155 671
155 673
155 677
155 679
155 683
155 685
155 686
155 688
155 689
155 698
155 705
156 661
156 662
156 663
156 666
156 672
156 675
156 678
156 680
156 684
156 689
156 700
156 701
156 702
156 703
157 661
157 672
157 691
158 663
158 683
159 662
159 663
159 668
159 669
159 676
159 681
159 704
160 662
160 663
160 675
160 693
160 700
161 683
162 661
162 662
162 680
162 684
163 662
163 676
164 661
165 662
166 661
166 662
166 692
166 697
167 663
167 675
167 693
167 695
168 661
169 662
171 661
172 661
172 662
172 666
173 661
173 667
174 661
174 665
174 671
174 696
175 662
175 664
176 661
176 667
177 662
177 676
178 661
179 667
179 705
181 662
181 663
182 675
182 701
183 662
184 662
186 680
186 684
187 662
187 697
188 661
188 667
189 689
190 662
190 677
191 664
191 679
192 665
192 671
193 661
193 665
194 662
194 666
195 661
196 661
196 705
196 706
196 707
196 708
196 709
196 711
196 712
196 715
196 716
196 720
196 722
196 726
196 729
196 738
196 739
197 705
197 706
197 715
198 705
198 707
198 709
198 713
198 725
199 715
200 705
200 706
200 716
200 732
201 706
201 711
201 738
202 711
203 707
203 709
203 717
203 723
203 728
203 733
204 705
204 711
204 720
205 705
205 706
205 719
206 705
206 707
206 724
207 707
207 709
207 734
208 717
208 723
209 707
209 734
210 705
210 706
211 705
211 729
212 707
212 734
213 705
213 715
213 737
214 706
214 716
215 705
215 716
216 707
216 728
217 734
218 709
218 710
218 721
219 705
219 729
220 707
220 734
221 711
222 705
222 709
222 717
223 707
224 707
224 734
225 710
225 721
227 707
228 710
228 721
229 711
230 705
230 706
230 711
231 705
231 713
231 727
232 705
232 727
233 707
233 712
234 707
236 707
236 734
237 705
237 707
237 709
238 707
238 734
239 705
239 716
240 721
241 706
241 707
241 714
242 705
242 711
243 706
243 714
243 735
244 707
245 707
245 734
245 739
245 740
245 741
245 742
245 744
245 745
245 746
245 749
245 750
245 752
245 755
245 758
245 767
246 739
246 740
246 762
247 740
247 741
247 744
247 745
247 746
247 747
247 750
247 754
247 756
247 764
247 767
248 740
248 741
248 755
248 757
248 758
248 763
249 740
249 741
249 743
249 761
250 739
251 740
251 763
252 741
252 754
253 741
253 745
253 747
254 739
254 740
254 741
254 748
254 751
255 740
255 741
255 743
256 740
256 757
257 739
257 740
258 740
258 741
258 748
258 751
258 760
258 765
259 739
260 739
260 740
260 741
260 753
261 741
262 740
262 741
262 743
263 741
263 749
263 766
264 741
264 759
264 760
265 741
266 740
266 741
267 740
267 741
268 739
268 740
269 740
269 763
270 741
270 759
271 741
271 748
272 740
272 758
273 739
273 741
274 741
276 740
276 741
277 741
278 740
278 742
278 752
279 748
279 751
280 767
280 768
280 769
280 770
280 771
280 772
280 773
280 775
280 778
280 779
280 780
280 783
280 784
280 785
280 786
280 788
280 790
281 767
281 768
282 767
282 768
282 769
282 776
282 778
282 781
282 782
282 785
283 767
283 772
283 774
283 776
283 779
283 781
283 782
283 786
283 787
284 772
284 774
284 782
284 785
284 787
285 767
285 771
285 783
285 788
288 772
288 774
289 767
289 768
290 767
290 775
290 777
290 783
290 788
290 789
290 790
290 791
290 798
290 799
290 800
291 790
291 791
291 792
291 793
291 794
291 795
291 796
291 797
291 798
291 803
292 791
292 794
292 798
292 799
292 800
292 804
292 805
293 790
293 793
294 790
294 791
294 792
295 790
295 792
295 796
296 790
296 793
296 795
296 801
297 790
297 793
297 801
298 790
298 796
299 790
299 795
300 790
300 792
301 790
301 791
301 792
302 798
303 793
303 797
303 802
304 790
304 797
305 791
305 794
306 792
306 796
307 791
307 794
308 790
308 793
308 795
308 806
309 798
310 790
310 796
312 801
313 790
313 792
314 790
314 797
315 791
315 793
316 790
316 792
317 790
318 790
318 791
319 790
319 793
320 790
320 793
320 795
321 793
321 806
321 807
321 808
321 809
321 810
321 811
321 812
321 813
321 815
321 816
322 806
322 807
322 809
323 806
323 807
323 808
323 814
324 806
324 811
325 806
325 807
326 806
326 807
326 814
327 811
327 812
327 816
328 811
328 812
329 806
330 811
330 812
331 807
331 814
332 812
332 816
333 816
334 811
335 811
336 816
336 817
336 818
336 819
336 820
336 821
336 823
336 824
336 825
336 826
336 829
336 832
336 838
336 839
336 840
337 816
337 817
337 818
337 822
337 826
337 828
337 829
337 831
337 833
337 834
337 837
337 842
338 816
338 819
338 822
338 827
338 828
338 832
338 834
338 836
338 841
338 842
338 843
339 816
339 817
339 824
339 825
340 818
340 829
341 816
341 819
341 827
341 841
342 820
342 821
342 830
342 839
342 840
343 834
344 819
344 820
344 821
345 816
345 819
346 816
347 819
347 832
347 843
348 816
349 829
350 818
350 833
350 837
351 818
351 826
351 831
352 819
353 820
353 821
355 824
356 816
356 838
357 817
357 818
357 823
358 816
359 818
359 831
359 835
360 817
360 823
361 816
362 829
363 819
364 821
364 830
365 816
365 819
365 820
366 817
366 823
367 817
367 823
368 829
369 816
369 828
370 829
371 819
373 819
375 843
375 844
375 846
375 848
375 852
375 853
375 856
375 858
375 861
375 863
375 864
375 866
375 868
375 869
375 872
375 880
376 843
376 844
376 845
376 846
376 848
376 850
376 852
376 856
376 863
376 864
376 868
376 879
376 881
377 844
377 846
377 849
377 851
377 853
377 855
377 857
377 859
377 861
377 866
377 869
377 870
377 873
377 877
377 883
377 884
378 844
378 845
379 843
379 844
380 844
380 849
381 843
381 850
381 854
381 875
381 876
381 882
382 843
382 850
382 854
382 875
382 882
383 848
383 852
384 843
385 849
385 851
385 859
386 852
386 856
386 881
387 844
387 846
387 857
388 843
388 845
388 850
389 856
390 849
391 850
391 875
391 876
392 843
393 849
393 860
393 862
394 844
395 856
395 872
396 853
396 858
397 846
397 869
398 846
398 851
398 865
399 845
400 855
400 862
400 867
401 844
401 846
402 854
403 851
403 855
403 860
404 844
404 845
405 852
405 864
406 843
406 844
406 879
407 851
407 870
408 860
408 862
408 885
408 886
408 901
408 913
408 917
409 885
409 886
409 887
409 888
409 893
409 897
409 904
409 905
409 906
409 908
409 912
409 915
409 920
409 926
410 886
410 890
410 906
410 909
410 913
410 917
411 886
411 890
411 909
411 913
412 885
412 886
412 887
412 891
412 894
412 895
412 898
412 899
412 902
412 911
412 914
412 922
412 923
412 925
413 885
413 887
413 889
413 924
414 909
415 885
415 887
415 888
415 893
415 897
415 900
415 903
415 915
415 918
415 921
416 885
417 890
418 885
418 886
418 916
418 919
419 886
419 908
420 887
420 893
420 912
421 886
421 887
421 894
421 895
421 922
423 886
423 911
423 923
424 887
424 888
425 885
425 889
426 885
426 887
426 889
426 892
428 885
428 886
428 916
428 919
429 887
429 926
429 927
429 928
429 930
429 931
429 932
429 933
429 934
429 936
429 938
429 939
429 943
429 944
429 946
430 926
430 927
430 929
430 933
430 938
430 939
430 945
431 926
431 927
431 928
431 929
431 930
431 931
431 932
431 933
431 935
431 937
431 940
431 941
431 943
431 945
432 927
434 929
434 930
434 934
434 939
434 946
434 947
435 928
435 936
436 926
436 941
437 927
437 940
437 942
438 927
438 944
439 930
439 934
440 930
441 929
441 935
442 930
444 930
444 947
445 930
446 929
447 928
448 939
449 930
450 940
451 930
453 930
454 926
455 939
455 946
456 926
457 945
458 945
460 928
461 939
463 935
463 937
464 927
465 934
466 930
466 947
467 927
467 931
468 927
469 928
471 927
472 926
473 945
475 947
476 947
477 947
477 948
477 949
477 953
477 955
477 963
477 967
478 947
478 948
478 950
478 954
478 955
478 956
478 957
478 958
478 965
479 947
479 950
479 951
479 956
479 960
479 961
479 964
479 967
480 948
480 955
480 958
481 947
481 950
481 952
482 947
482 948
482 963
483 947
483 950
483 952
484 947
484 951
484 964
487 949
487 953
488 947
488 951
488 959
488 961
488 962
489 947
489 960
490 947
490 950
490 966
492 947
492 957